
Gurobi 9.0.2 (win64) logging started Sat Oct 10 14:36:08 2020

Changed value of parameter logfile to result\v6.2-20201010T1221\scenario_2030_eff075_cab1000.log
   Prev:   Default: 
Gurobi Optimizer version 9.0.2 build v9.0.2rc0 (win64)
Optimize a model with 1384150 rows, 884815 columns and 3912197 nonzeros
Model fingerprint: 0x80fc7556
Coefficient statistics:
  Matrix range     [1e-07, 3e+05]
  Objective range  [1e+00, 1e+00]
  Bounds range     [0e+00, 0e+00]
  RHS range        [2e-05, 3e+08]
Warning: Model contains large matrix coefficient range
         Consider reformulating model or setting NumericFocus parameter
         to avoid numerical issues.

Concurrent LP optimizer: primal simplex, dual simplex, and barrier
Showing barrier log only...

Presolve removed 1129315 rows and 656241 columns
Presolve time: 3.52s
Presolved: 254835 rows, 342440 columns, 891938 nonzeros

Ordering time: 0.13s

Barrier statistics:
 Dense cols : 9
 AA' NZ     : 8.194e+05
 Factor NZ  : 4.461e+06 (roughly 300 MBytes of memory)
 Factor Ops : 1.125e+08 (less than 1 second per iteration)
 Threads    : 30

                  Objective                Residual
Iter       Primal          Dual         Primal    Dual     Compl     Time
   0  -1.88122415e+16 -1.58516049e+15  5.64e+06 1.56e+04  2.26e+12     4s
   1  -2.86984986e+15 -1.58807385e+15  8.53e+05 4.69e+06  7.41e+11     5s
   2  -1.21912037e+15 -1.28703889e+15  3.60e+05 9.66e+05  2.23e+11     5s
   3  -4.90359680e+14 -1.06232202e+15  1.42e+05 2.72e+05  7.90e+10     5s
   4  -1.12859638e+14 -6.69905679e+14  3.01e+04 6.72e+04  1.83e+10     6s
   5  -3.54618942e+13 -4.52562986e+14  9.40e+03 3.39e+04  7.60e+09     6s
   6  -1.71891479e+13 -2.53575741e+14  4.77e+03 1.04e+04  2.95e+09     6s
   7  -6.91872212e+12 -1.44649838e+14  2.04e+03 1.98e+03  9.27e+08     6s
   8  -1.39123834e+12 -7.41742969e+13  5.23e+02 2.98e+02  2.31e+08     7s
   9   4.69751880e+11 -1.02164205e+13  2.98e+00 3.82e+00  1.61e+07     7s
  10   1.78215321e+11 -1.56821411e+12  2.91e-01 4.45e-01  2.56e+06     7s
  11   8.41417905e+10 -5.03943353e+11  1.08e-01 4.76e-02  8.56e+05     8s
  12   4.91299360e+10 -3.59879135e+11  5.83e-02 7.45e-09  5.94e+05     8s
  13   2.55153555e+10 -2.05742492e+11  2.37e-02 7.45e-09  3.35e+05     8s
  14   1.52226397e+10 -8.92557269e+10  9.59e-03 1.12e-08  1.51e+05     8s
  15   1.37787124e+10 -5.45442054e+10  8.10e-03 7.45e-09  9.90e+04     9s
  16   8.71378390e+09 -1.43693771e+10  2.14e-03 1.12e-08  3.34e+04     9s
  17   7.20364287e+09 -4.55223878e+09  9.22e-04 7.45e-09  1.70e+04     9s
  18   6.64812770e+09  9.11804796e+08  5.68e-04 5.59e-09  8.29e+03     9s
  19   6.32894610e+09  2.71736521e+09  3.81e-04 5.59e-09  5.22e+03    10s
  20   6.14709477e+09  2.98109911e+09  2.79e-04 3.73e-09  4.57e+03    10s
  21   6.08060069e+09  3.59166448e+09  2.44e-04 3.73e-09  3.60e+03    10s
  22   5.97667672e+09  4.04397871e+09  1.90e-04 2.79e-09  2.79e+03    11s
  23   5.84814677e+09  4.63470401e+09  1.26e-04 2.79e-09  1.75e+03    11s
  24   5.74493892e+09  4.77060549e+09  7.34e-05 2.79e-09  1.41e+03    11s
  25   5.68771941e+09  5.02888961e+09  4.80e-05 1.86e-09  9.51e+02    12s
  26   5.65739881e+09  5.19882301e+09  3.50e-05 1.86e-09  6.62e+02    12s
  27   5.63814763e+09  5.27708504e+09  2.67e-05 1.86e-09  5.21e+02    12s
  28   5.62209219e+09  5.32112420e+09  2.02e-05 1.86e-09  4.35e+02    13s
  29   5.60733368e+09  5.36800322e+09  1.42e-05 1.86e-09  3.46e+02    13s
  30   5.60023155e+09  5.42410451e+09  1.14e-05 1.86e-09  2.54e+02    14s
  31   5.59564761e+09  5.47245853e+09  9.67e-06 1.86e-09  1.78e+02    14s
  32   5.58807403e+09  5.49083158e+09  6.84e-06 1.86e-09  1.40e+02    14s
  33   5.58560027e+09  5.50879318e+09  5.91e-06 1.86e-09  1.11e+02    15s
  34   5.58343785e+09  5.51261330e+09  5.14e-06 1.86e-09  1.02e+02    15s
  35   5.58141282e+09  5.52106308e+09  4.44e-06 1.86e-09  8.72e+01    15s
  36   5.58003719e+09  5.52850789e+09  3.94e-06 1.86e-09  7.44e+01    16s
  37   5.57938338e+09  5.53218505e+09  3.71e-06 1.86e-09  6.82e+01    16s
  38   5.57778062e+09  5.53515268e+09  3.16e-06 1.86e-09  6.16e+01    17s
  39   5.57700459e+09  5.53717596e+09  2.89e-06 2.79e-09  5.75e+01    17s
  40   5.57588920e+09  5.54136160e+09  2.51e-06 1.86e-09  4.99e+01    17s
  41   5.57559651e+09  5.54227247e+09  2.41e-06 2.79e-09  4.81e+01    18s
  42   5.57492584e+09  5.54577306e+09  2.18e-06 2.79e-09  4.21e+01    18s
  43   5.57355950e+09  5.54925968e+09  1.71e-06 1.86e-09  3.51e+01    18s
  44   5.57312784e+09  5.55091976e+09  1.56e-06 2.79e-09  3.21e+01    19s
  45   5.57238909e+09  5.55407706e+09  1.32e-06 1.86e-09  2.64e+01    19s
  46   5.57163054e+09  5.55562531e+09  1.06e-06 1.86e-09  2.31e+01    20s
  47   5.57104069e+09  5.55700461e+09  8.58e-07 1.86e-09  2.03e+01    20s
  48   5.57076660e+09  5.55882528e+09  7.69e-07 2.79e-09  1.72e+01    20s
  49   5.57060524e+09  5.55938356e+09  7.17e-07 2.79e-09  1.62e+01    21s
  50   5.57024593e+09  5.56089343e+09  5.94e-07 2.79e-09  1.35e+01    21s
  51   5.57000422e+09  5.56183573e+09  5.14e-07 1.86e-09  1.18e+01    21s
  52   5.56992913e+09  5.56204077e+09  4.89e-07 2.79e-09  1.14e+01    22s
  53   5.56981601e+09  5.56285416e+09  4.53e-07 2.79e-09  1.01e+01    22s
  54   5.56958035e+09  5.56434701e+09  3.77e-07 1.86e-09  7.56e+00    23s
  55   5.56934523e+09  5.56495105e+09  3.02e-07 1.86e-09  6.35e+00    23s
  56   5.56916913e+09  5.56584864e+09  2.71e-07 1.86e-09  4.80e+00    23s
  57   5.56909042e+09  5.56634229e+09  2.40e-07 1.86e-09  3.97e+00    24s
  58   5.56897534e+09  5.56664643e+09  4.62e-07 1.86e-09  3.36e+00    24s
  59   5.56877314e+09  5.56704159e+09  4.36e-07 1.86e-09  2.50e+00    24s
  60   5.56869271e+09  5.56733649e+09  3.51e-07 1.86e-09  1.96e+00    25s
  61   5.56863819e+09  5.56756250e+09  2.95e-07 1.86e-09  1.55e+00    25s
  62   5.56855131e+09  5.56782776e+09  1.03e-06 1.86e-09  1.04e+00    26s
  63   5.56851961e+09  5.56794343e+09  9.10e-07 1.86e-09  8.32e-01    26s
  64   5.56845926e+09  5.56807950e+09  7.91e-07 1.86e-09  5.48e-01    27s
  65   5.56843704e+09  5.56812566e+09  6.37e-07 1.86e-09  4.50e-01    27s
  66   5.56842351e+09  5.56813883e+09  5.45e-07 1.86e-09  4.11e-01    28s
  67   5.56841112e+09  5.56822185e+09  4.62e-07 1.86e-09  2.73e-01    28s
  68   5.56840128e+09  5.56823261e+09  3.96e-07 2.79e-09  2.44e-01    29s
  69   5.56839197e+09  5.56823514e+09  3.39e-07 1.86e-09  2.27e-01    29s
  70   5.56838348e+09  5.56828055e+09  2.80e-07 1.86e-09  1.49e-01    30s
  71   5.56837953e+09  5.56828578e+09  2.56e-07 1.86e-09  1.35e-01    31s
  72   5.56837246e+09  5.56832063e+09  2.07e-07 1.86e-09  7.49e-02    31s
  73   5.56837021e+09  5.56832145e+09  1.94e-07 2.79e-09  7.05e-02    32s
  74   5.56835578e+09  5.56833075e+09  1.04e-07 1.86e-09  3.62e-02    32s
  75   5.56834270e+09  5.56833539e+09  1.21e-08 1.86e-09  1.06e-02    33s
  76   5.56834119e+09  5.56834027e+09  1.25e-08 2.79e-09  1.33e-03    33s
  77   5.56834119e+09  5.56834027e+09  1.88e-04 2.79e-09  1.33e-03    33s

Barrier solved model in 77 iterations and 33.50 seconds
Optimal objective 5.56834119e+09

Crossover log...

   74505 DPushes remaining with DInf 0.0000000e+00                34s
    4949 DPushes remaining with DInf 0.0000000e+00                35s
       0 DPushes remaining with DInf 0.0000000e+00                39s

  172269 PPushes remaining with PInf 5.0753477e-04                39s
   59489 PPushes remaining with PInf 1.6736518e-01                83s
   45751 PPushes remaining with PInf 1.6341095e-01                86s
   26165 PPushes remaining with PInf 4.8348771e-02                90s
   16581 PPushes remaining with PInf 1.9941935e-02               117s
    8128 PPushes remaining with PInf 3.0370968e-03               126s
    1275 PPushes remaining with PInf 7.3099039e-03               148s
     567 PPushes remaining with PInf 2.5107249e-03               150s
       0 PPushes remaining with PInf 0.0000000e+00               152s

  Push phase complete: Pinf 0.0000000e+00, Dinf 1.2680530e+06    152s

Iteration    Objective       Primal Inf.    Dual Inf.      Time
  198892    5.5683409e+09   0.000000e+00   1.268053e+06    153s
  199434    5.5683409e+09   0.000000e+00   4.769796e+03    155s
  202061    5.5683409e+09   0.000000e+00   0.000000e+00    160s

Solved with barrier
Solved in 202061 iterations and 159.52 seconds
Optimal objective  5.568340861e+09
Warning: unscaled primal violation = 0.000868748 and residual = 0.000868748
